************************************************************************
file with basedata            : mb3_.bas
initial value random generator: 1880398242
************************************************************************
projects                      :  1
jobs (incl. supersource/sink ):  12
horizon                       :  82
RESOURCES
  - renewable                 :  2   R
  - nonrenewable              :  2   N
  - doubly constrained        :  0   D
************************************************************************
PROJECT INFORMATION:
pronr.  #jobs rel.date duedate tardcost  MPM-Time
    1     10      0       15        5       15
************************************************************************
PRECEDENCE RELATIONS:
jobnr.    #modes  #successors   successors
   0        1          3           1   2   3
   1        3          3           4   7   8
   2        3          1          10
   3        3          2           8   9
   4        3          2           5  10
   5        3          1           6
   6        3          1           9
   7        3          2           9  10
   8        3          1          11
   9        3          1          11
  10        3          1          11
  11        1          0        
************************************************************************
REQUESTS/DURATIONS:
jobnr. mode duration  R 1  R 2  R 3  R 4  E(W 1)  E(W 2)  E(W 3)
------------------------------------------------------------------------
  0      1     0       0    0    0    0     0       0       0
  1      1     2       5    0    8   10    10      16      20
  2      1     9       9    0    7    7    81      63      63
  3      1     4       0    1    9    9     8      36      36
  4      1     5       0    8    4    9    40      20      45
  5      1     1       0   10    8    5    10       8       5
  6      1     2       0    4    7    6     8      14      12
  7      1     2       8    0    3   10    16       6      20
  8      1     1      10    0    7    7    10       7       7
  9      1     2       1    0    6    8     4      12      16
 10      1     6       9    0    9    8    54      54      48
 11      1     0       0    0    0    0     0       0       0
************************************************************************
RESOURCEAVAILABILITIES:
  R 1  R 2  R 3
   18   70   81
************************************************************************
RESOURCE LIMITS:
jobnr.  l(R 1)  u(R 1)  l(R 2)  u(R 2)  l(R 3)  u(R 3)
------------------------------------------------------------------------
  0        0       0       0       0       0       0
  1        3       5       4       8       5      10
  2        5       9       4       7       4       7
  3        1       2       5       9       5       9
  4        4       8       2       4       5       9
  5        5      10       4       8       3       5
  6        2       4       4       7       3       6
  7        4       8       2       3       5      10
  8        5      10       4       7       4       7
  9        1       2       3       6       4       8
 10        5       9       5       9       4       8
 11        0       0       0       0       0       0
************************************************************************
SCENARIOS:
------------------------------------------------------------------------
RESOURCE k = 1
s = 1: (0, 13, 83, 7, 46, 16, 8, 12, 8, 5, 35, 0)
s = 2: (0, 9, 119, 6, 56, 10, 9, 12, 8, 5, 59, 0)
s = 3: (0, 9, 69, 6, 32, 6, 9, 20, 9, 4, 53, 0)
s = 4: (0, 14, 105, 9, 27, 10, 5, 11, 9, 4, 35, 0)
s = 5: (0, 8, 56, 6, 44, 13, 8, 17, 9, 6, 64, 0)
s = 6: (0, 12, 55, 7, 45, 11, 11, 13, 13, 4, 93, 0)
s = 7: (0, 7, 67, 7, 22, 12, 9, 15, 14, 4, 67, 0)
s = 8: (0, 9, 61, 9, 42, 10, 6, 12, 7, 4, 42, 0)
s = 9: (0, 12, 53, 6, 47, 8, 5, 17, 8, 3, 41, 0)
s = 10: (0, 7, 66, 9, 52, 13, 9, 12, 13, 4, 57, 0)
s = 11: (0, 6, 78, 6, 35, 9, 7, 9, 9, 3, 71, 0)
s = 12: (0, 8, 84, 6, 52, 12, 8, 20, 7, 4, 50, 0)
s = 13: (0, 10, 52, 11, 22, 10, 9, 13, 7, 3, 73, 0)
s = 14: (0, 9, 66, 11, 35, 12, 5, 20, 11, 6, 72, 0)
s = 15: (0, 11, 105, 11, 46, 9, 7, 16, 18, 4, 60, 0)
s = 16: (0, 11, 134, 11, 28, 8, 12, 12, 8, 5, 42, 0)
s = 17: (0, 9, 141, 9, 29, 10, 6, 25, 11, 5, 72, 0)
s = 18: (0, 9, 105, 6, 59, 11, 9, 13, 7, 4, 42, 0)
s = 19: (0, 12, 86, 8, 52, 11, 12, 16, 11, 3, 29, 0)
s = 20: (0, 8, 83, 9, 40, 14, 9, 22, 8, 3, 33, 0)
s = 21: (0, 7, 122, 11, 50, 15, 9, 21, 9, 4, 42, 0)
s = 22: (0, 8, 94, 9, 49, 14, 7, 25, 7, 6, 53, 0)
s = 23: (0, 9, 100, 8, 26, 14, 10, 18, 18, 5, 85, 0)
s = 24: (0, 9, 74, 8, 24, 13, 13, 10, 9, 3, 79, 0)
s = 25: (0, 12, 65, 6, 34, 9, 9, 10, 7, 4, 42, 0)
s = 26: (0, 10, 54, 11, 34, 9, 5, 11, 7, 4, 59, 0)
s = 27: (0, 8, 83, 8, 46, 7, 10, 17, 11, 4, 67, 0)
s = 28: (0, 9, 66, 6, 37, 11, 5, 20, 9, 4, 42, 0)
s = 29: (0, 11, 67, 8, 26, 12, 6, 14, 11, 5, 80, 0)
s = 30: (0, 10, 117, 8, 45, 16, 10, 22, 13, 6, 79, 0)
s = 31: (0, 15, 49, 11, 25, 11, 9, 11, 9, 3, 58, 0)
s = 32: (0, 9, 68, 6, 30, 16, 9, 27, 13, 5, 68, 0)
s = 33: (0, 10, 83, 8, 25, 10, 10, 17, 6, 6, 44, 0)
s = 34: (0, 9, 85, 9, 45, 8, 9, 19, 8, 5, 49, 0)
s = 35: (0, 10, 79, 7, 21, 12, 10, 10, 7, 4, 51, 0)
s = 36: (0, 12, 120, 7, 55, 8, 9, 16, 10, 5, 57, 0)
s = 37: (0, 9, 101, 9, 42, 6, 9, 18, 6, 3, 78, 0)
s = 38: (0, 6, 70, 9, 47, 8, 8, 20, 10, 3, 90, 0)
s = 39: (0, 7, 103, 11, 51, 13, 11, 25, 11, 6, 86, 0)
s = 40: (0, 11, 71, 13, 39, 9, 14, 23, 6, 5, 34, 0)
s = 41: (0, 17, 74, 9, 44, 8, 5, 20, 12, 3, 41, 0)
s = 42: (0, 13, 72, 7, 52, 13, 10, 22, 10, 6, 54, 0)
s = 43: (0, 7, 76, 6, 40, 9, 10, 17, 13, 5, 29, 0)
s = 44: (0, 10, 52, 10, 43, 13, 6, 12, 10, 7, 50, 0)
s = 45: (0, 11, 103, 10, 60, 8, 9, 12, 16, 4, 50, 0)
s = 46: (0, 10, 114, 15, 30, 16, 12, 15, 7, 4, 52, 0)
s = 47: (0, 9, 55, 8, 51, 9, 13, 27, 9, 6, 46, 0)
s = 48: (0, 8, 84, 9, 26, 8, 9, 24, 12, 5, 64, 0)
s = 49: (0, 7, 82, 8, 50, 10, 6, 22, 18, 5, 85, 0)
s = 50: (0, 8, 81, 8, 34, 14, 8, 11, 14, 3, 49, 0)
s = 51: (0, 15, 125, 8, 62, 10, 5, 13, 9, 7, 75, 0)
s = 52: (0, 15, 83, 12, 60, 8, 9, 10, 8, 5, 65, 0)
s = 53: (0, 10, 78, 12, 32, 9, 6, 16, 9, 5, 50, 0)
s = 54: (0, 6, 111, 6, 41, 8, 8, 11, 12, 6, 38, 0)
s = 55: (0, 8, 69, 6, 43, 10, 8, 18, 9, 4, 58, 0)
s = 56: (0, 12, 65, 14, 45, 7, 9, 12, 17, 6, 44, 0)
s = 57: (0, 10, 108, 9, 58, 9, 7, 21, 6, 5, 42, 0)
s = 58: (0, 12, 84, 14, 62, 9, 5, 19, 11, 3, 30, 0)
s = 59: (0, 12, 93, 6, 57, 13, 6, 10, 10, 5, 51, 0)
s = 60: (0, 11, 74, 7, 24, 9, 8, 15, 14, 4, 37, 0)
s = 61: (0, 12, 91, 5, 27, 8, 5, 15, 11, 6, 38, 0)
s = 62: (0, 6, 103, 10, 33, 9, 11, 14, 14, 4, 72, 0)
s = 63: (0, 7, 87, 9, 37, 9, 7, 21, 13, 5, 59, 0)
s = 64: (0, 10, 64, 10, 26, 12, 8, 19, 9, 5, 50, 0)
s = 65: (0, 9, 69, 8, 48, 12, 6, 9, 6, 4, 59, 0)
s = 66: (0, 15, 108, 11, 38, 6, 9, 23, 9, 5, 52, 0)
s = 67: (0, 14, 61, 8, 30, 13, 7, 13, 12, 5, 49, 0)
s = 68: (0, 13, 124, 7, 59, 7, 6, 15, 12, 4, 55, 0)
s = 69: (0, 16, 113, 10, 33, 9, 9, 15, 15, 4, 69, 0)
s = 70: (0, 6, 125, 8, 26, 14, 9, 12, 11, 5, 74, 0)
s = 71: (0, 11, 95, 8, 60, 12, 6, 12, 9, 4, 67, 0)
s = 72: (0, 13, 73, 8, 48, 10, 7, 12, 11, 3, 48, 0)
s = 73: (0, 16, 51, 9, 29, 10, 9, 14, 13, 4, 36, 0)
s = 74: (0, 8, 76, 7, 51, 9, 13, 18, 6, 5, 64, 0)
s = 75: (0, 10, 74, 5, 32, 9, 9, 13, 10, 3, 53, 0)
s = 76: (0, 12, 118, 11, 52, 11, 11, 17, 11, 4, 57, 0)
s = 77: (0, 7, 73, 10, 39, 8, 6, 14, 8, 5, 55, 0)
s = 78: (0, 16, 75, 7, 25, 7, 12, 25, 9, 6, 82, 0)
s = 79: (0, 10, 76, 6, 44, 11, 12, 12, 8, 5, 56, 0)
s = 80: (0, 8, 78, 10, 35, 7, 9, 25, 16, 4, 55, 0)
s = 81: (0, 9, 51, 8, 26, 13, 6, 23, 9, 5, 59, 0)
s = 82: (0, 6, 57, 5, 48, 8, 12, 13, 6, 4, 49, 0)
s = 83: (0, 11, 76, 6, 61, 8, 9, 21, 7, 5, 78, 0)
s = 84: (0, 9, 77, 7, 49, 8, 10, 17, 9, 4, 43, 0)
s = 85: (0, 11, 52, 9, 39, 10, 7, 12, 17, 5, 74, 0)
s = 86: (0, 13, 74, 8, 33, 8, 8, 20, 10, 5, 50, 0)
s = 87: (0, 9, 111, 8, 48, 7, 9, 14, 7, 4, 45, 0)
s = 88: (0, 10, 85, 7, 59, 9, 10, 19, 7, 4, 55, 0)
s = 89: (0, 14, 87, 7, 41, 12, 7, 17, 11, 6, 59, 0)
s = 90: (0, 10, 90, 8, 46, 11, 8, 16, 6, 4, 75, 0)
s = 91: (0, 10, 69, 6, 30, 15, 10, 9, 13, 7, 54, 0)
s = 92: (0, 8, 132, 7, 26, 15, 7, 18, 8, 5, 73, 0)
s = 93: (0, 9, 64, 5, 60, 15, 5, 13, 11, 4, 88, 0)
s = 94: (0, 7, 74, 12, 45, 15, 7, 28, 9, 6, 69, 0)
s = 95: (0, 8, 46, 7, 70, 11, 6, 12, 6, 5, 75, 0)
s = 96: (0, 10, 73, 8, 51, 15, 8, 10, 9, 4, 52, 0)
s = 97: (0, 11, 125, 8, 52, 8, 6, 12, 16, 3, 48, 0)
s = 98: (0, 9, 73, 13, 36, 15, 8, 16, 7, 4, 51, 0)
s = 99: (0, 8, 69, 10, 27, 9, 8, 12, 8, 6, 61, 0)
s = 100: (0, 9, 68, 6, 35, 10, 7, 24, 19, 5, 52, 0)
s = 101: (0, 14, 62, 10, 54, 15, 9, 17, 7, 3, 60, 0)
s = 102: (0, 16, 109, 13, 38, 15, 11, 18, 9, 5, 62, 0)
s = 103: (0, 7, 65, 8, 46, 9, 9, 10, 17, 5, 39, 0)
s = 104: (0, 11, 92, 7, 28, 11, 15, 13, 7, 5, 43, 0)
s = 105: (0, 11, 78, 12, 29, 10, 12, 9, 12, 4, 47, 0)
s = 106: (0, 8, 95, 5, 31, 11, 9, 10, 9, 6, 73, 0)
s = 107: (0, 9, 47, 6, 59, 14, 6, 11, 6, 4, 50, 0)
s = 108: (0, 8, 70, 10, 49, 15, 8, 20, 14, 6, 60, 0)
s = 109: (0, 13, 83, 7, 32, 10, 8, 16, 8, 5, 53, 0)
s = 110: (0, 8, 100, 7, 41, 12, 8, 9, 15, 3, 38, 0)
s = 111: (0, 9, 61, 10, 41, 11, 9, 23, 8, 5, 49, 0)
s = 112: (0, 11, 66, 8, 35, 13, 7, 20, 9, 6, 38, 0)
s = 113: (0, 7, 58, 11, 56, 10, 11, 16, 12, 4, 45, 0)
s = 114: (0, 11, 69, 11, 51, 12, 5, 15, 6, 5, 79, 0)
s = 115: (0, 9, 48, 7, 42, 7, 6, 11, 11, 5, 57, 0)
s = 116: (0, 9, 47, 10, 44, 7, 12, 13, 7, 5, 59, 0)
s = 117: (0, 14, 50, 13, 46, 10, 10, 13, 11, 7, 40, 0)
s = 118: (0, 9, 60, 8, 53, 10, 8, 19, 7, 4, 67, 0)
s = 119: (0, 11, 75, 5, 47, 11, 9, 11, 16, 5, 54, 0)
s = 120: (0, 12, 71, 7, 31, 16, 9, 17, 10, 5, 48, 0)
s = 121: (0, 11, 53, 9, 49, 11, 6, 11, 8, 3, 58, 0)
s = 122: (0, 11, 72, 8, 34, 7, 8, 19, 11, 4, 52, 0)
s = 123: (0, 8, 53, 7, 33, 12, 7, 16, 8, 4, 66, 0)
s = 124: (0, 6, 88, 8, 33, 7, 6, 15, 9, 5, 55, 0)
s = 125: (0, 9, 95, 7, 36, 10, 10, 10, 8, 5, 58, 0)
s = 126: (0, 8, 62, 5, 48, 8, 8, 18, 10, 4, 51, 0)
s = 127: (0, 19, 91, 13, 35, 7, 11, 19, 12, 7, 64, 0)
s = 128: (0, 10, 113, 10, 45, 19, 11, 18, 7, 3, 37, 0)
s = 129: (0, 7, 90, 7, 35, 8, 11, 14, 10, 8, 60, 0)
s = 130: (0, 8, 70, 7, 24, 10, 8, 16, 7, 5, 53, 0)
s = 131: (0, 11, 85, 5, 42, 11, 6, 19, 11, 3, 40, 0)
s = 132: (0, 17, 57, 8, 41, 8, 8, 15, 8, 5, 32, 0)
s = 133: (0, 12, 52, 8, 58, 13, 9, 23, 11, 4, 78, 0)
s = 134: (0, 7, 89, 7, 51, 9, 5, 11, 10, 5, 58, 0)
s = 135: (0, 10, 62, 7, 37, 12, 6, 17, 6, 6, 89, 0)
s = 136: (0, 9, 53, 11, 35, 14, 7, 20, 8, 4, 67, 0)
s = 137: (0, 12, 57, 8, 28, 11, 11, 18, 11, 5, 44, 0)
s = 138: (0, 15, 46, 8, 40, 6, 10, 11, 7, 5, 42, 0)
s = 139: (0, 11, 102, 9, 46, 8, 9, 15, 10, 4, 67, 0)
s = 140: (0, 7, 66, 6, 45, 7, 6, 14, 7, 4, 44, 0)
s = 141: (0, 9, 76, 7, 55, 7, 8, 19, 15, 5, 75, 0)
s = 142: (0, 10, 87, 9, 27, 7, 7, 12, 12, 5, 48, 0)
s = 143: (0, 6, 95, 8, 33, 12, 10, 27, 7, 3, 47, 0)
s = 144: (0, 10, 112, 8, 27, 8, 7, 15, 14, 5, 37, 0)
s = 145: (0, 11, 66, 5, 32, 7, 13, 23, 8, 5, 71, 0)
s = 146: (0, 10, 61, 5, 43, 7, 7, 24, 7, 4, 53, 0)
s = 147: (0, 8, 77, 9, 53, 11, 11, 10, 15, 5, 62, 0)
s = 148: (0, 11, 83, 7, 39, 10, 6, 19, 15, 5, 43, 0)
s = 149: (0, 7, 101, 6, 69, 13, 9, 10, 7, 3, 37, 0)
s = 150: (0, 11, 103, 6, 40, 8, 9, 22, 7, 4, 65, 0)
s = 151: (0, 14, 116, 11, 34, 11, 12, 17, 13, 3, 47, 0)
s = 152: (0, 9, 111, 12, 38, 9, 5, 23, 11, 5, 77, 0)
s = 153: (0, 13, 63, 6, 49, 13, 6, 14, 9, 4, 50, 0)
s = 154: (0, 6, 102, 5, 43, 11, 6, 15, 15, 6, 54, 0)
s = 155: (0, 15, 55, 11, 35, 17, 11, 13, 10, 5, 65, 0)
s = 156: (0, 6, 57, 10, 27, 9, 5, 20, 15, 6, 48, 0)
s = 157: (0, 6, 85, 6, 49, 11, 13, 27, 15, 5, 55, 0)
s = 158: (0, 7, 94, 6, 41, 9, 12, 11, 9, 6, 48, 0)
s = 159: (0, 7, 101, 14, 26, 8, 5, 21, 13, 4, 43, 0)
s = 160: (0, 8, 53, 8, 38, 14, 12, 19, 13, 6, 46, 0)
s = 161: (0, 13, 98, 12, 31, 11, 8, 11, 9, 4, 43, 0)
s = 162: (0, 13, 69, 13, 44, 9, 10, 19, 10, 4, 61, 0)
s = 163: (0, 7, 104, 6, 31, 7, 14, 19, 9, 5, 49, 0)
s = 164: (0, 12, 69, 8, 31, 12, 6, 17, 11, 5, 80, 0)
s = 165: (0, 17, 94, 14, 32, 13, 5, 16, 11, 4, 53, 0)
s = 166: (0, 9, 102, 9, 42, 11, 10, 11, 15, 3, 99, 0)
s = 167: (0, 10, 87, 6, 24, 17, 8, 15, 15, 3, 67, 0)
s = 168: (0, 10, 101, 9, 57, 12, 7, 20, 6, 3, 58, 0)
s = 169: (0, 10, 78, 7, 46, 9, 8, 20, 11, 7, 46, 0)
s = 170: (0, 14, 73, 11, 32, 11, 6, 10, 11, 5, 28, 0)
s = 171: (0, 6, 114, 8, 29, 8, 6, 18, 18, 3, 61, 0)
s = 172: (0, 8, 90, 8, 58, 11, 11, 11, 9, 8, 46, 0)
s = 173: (0, 10, 101, 9, 53, 12, 5, 19, 13, 3, 46, 0)
s = 174: (0, 8, 57, 7, 30, 13, 13, 19, 12, 4, 41, 0)
s = 175: (0, 11, 145, 10, 27, 7, 8, 11, 15, 5, 70, 0)
s = 176: (0, 13, 102, 8, 39, 9, 7, 18, 8, 4, 56, 0)
s = 177: (0, 13, 109, 9, 31, 6, 10, 16, 14, 5, 45, 0)
s = 178: (0, 8, 93, 12, 25, 10, 7, 21, 8, 5, 63, 0)
s = 179: (0, 16, 90, 10, 33, 8, 8, 9, 8, 5, 74, 0)
s = 180: (0, 11, 43, 8, 27, 9, 8, 21, 8, 4, 50, 0)
s = 181: (0, 11, 70, 7, 40, 11, 14, 20, 7, 4, 72, 0)
s = 182: (0, 12, 115, 9, 38, 11, 9, 21, 9, 5, 48, 0)
s = 183: (0, 8, 84, 10, 41, 9, 9, 16, 12, 3, 36, 0)
s = 184: (0, 7, 67, 10, 31, 12, 6, 14, 10, 4, 47, 0)
s = 185: (0, 8, 82, 6, 35, 7, 7, 18, 8, 4, 52, 0)
s = 186: (0, 13, 96, 8, 40, 8, 8, 13, 12, 4, 40, 0)
s = 187: (0, 9, 95, 11, 54, 10, 5, 17, 10, 4, 48, 0)
s = 188: (0, 9, 81, 6, 65, 10, 11, 14, 9, 5, 64, 0)
s = 189: (0, 6, 95, 5, 48, 6, 6, 21, 11, 5, 57, 0)
s = 190: (0, 9, 57, 12, 36, 10, 6, 20, 9, 6, 66, 0)
s = 191: (0, 12, 60, 5, 45, 11, 9, 16, 8, 4, 39, 0)
s = 192: (0, 9, 70, 6, 50, 12, 14, 10, 8, 5, 48, 0)
s = 193: (0, 8, 88, 7, 34, 12, 7, 12, 13, 3, 79, 0)
s = 194: (0, 12, 83, 12, 43, 7, 7, 22, 16, 4, 87, 0)
s = 195: (0, 15, 48, 7, 29, 15, 5, 13, 9, 3, 52, 0)
s = 196: (0, 10, 74, 12, 48, 8, 8, 16, 8, 4, 76, 0)
s = 197: (0, 15, 78, 7, 24, 7, 6, 19, 12, 6, 53, 0)
s = 198: (0, 9, 117, 7, 25, 11, 11, 26, 6, 5, 70, 0)
s = 199: (0, 9, 56, 10, 46, 10, 12, 15, 6, 3, 44, 0)
s = 200: (0, 16, 62, 10, 44, 11, 9, 14, 9, 6, 55, 0)
------------------------------------------------------------------------
RESOURCE k = 2
s = 1: (0, 20, 65, 29, 23, 13, 14, 5, 6, 13, 35, 0)
s = 2: (0, 14, 92, 26, 28, 8, 15, 5, 6, 13, 59, 0)
s = 3: (0, 14, 54, 25, 16, 5, 16, 8, 6, 10, 53, 0)
s = 4: (0, 22, 82, 38, 14, 8, 9, 4, 7, 10, 35, 0)
s = 5: (0, 12, 44, 24, 22, 10, 13, 7, 7, 16, 64, 0)
s = 6: (0, 20, 43, 29, 23, 9, 19, 5, 9, 11, 93, 0)
s = 7: (0, 11, 52, 32, 11, 10, 15, 6, 10, 12, 67, 0)
s = 8: (0, 14, 48, 39, 21, 8, 10, 5, 5, 12, 42, 0)
s = 9: (0, 19, 42, 23, 24, 7, 8, 7, 5, 7, 41, 0)
s = 10: (0, 12, 51, 39, 26, 10, 15, 5, 9, 11, 57, 0)
s = 11: (0, 9, 61, 26, 18, 7, 11, 4, 6, 8, 71, 0)
s = 12: (0, 12, 66, 26, 26, 10, 13, 8, 5, 11, 50, 0)
s = 13: (0, 16, 41, 46, 11, 8, 15, 5, 5, 8, 73, 0)
s = 14: (0, 14, 51, 49, 18, 10, 8, 8, 8, 17, 72, 0)
s = 15: (0, 17, 82, 46, 23, 7, 12, 6, 13, 10, 60, 0)
s = 16: (0, 17, 105, 49, 14, 7, 21, 5, 6, 13, 42, 0)
s = 17: (0, 14, 110, 37, 15, 8, 10, 10, 8, 13, 72, 0)
s = 18: (0, 14, 82, 27, 30, 9, 15, 5, 5, 11, 42, 0)
s = 19: (0, 19, 67, 36, 26, 9, 20, 6, 8, 9, 29, 0)
s = 20: (0, 13, 65, 39, 20, 11, 15, 9, 6, 8, 33, 0)
s = 21: (0, 10, 95, 49, 25, 12, 16, 8, 6, 12, 42, 0)
s = 22: (0, 13, 73, 38, 25, 11, 12, 10, 5, 16, 53, 0)
s = 23: (0, 15, 78, 32, 13, 11, 17, 7, 12, 14, 85, 0)
s = 24: (0, 14, 57, 33, 12, 10, 22, 4, 6, 9, 79, 0)
s = 25: (0, 18, 50, 26, 17, 7, 16, 4, 5, 12, 42, 0)
s = 26: (0, 16, 42, 48, 17, 8, 9, 4, 5, 12, 59, 0)
s = 27: (0, 13, 64, 32, 23, 6, 18, 7, 8, 12, 67, 0)
s = 28: (0, 13, 52, 25, 19, 9, 9, 8, 7, 12, 42, 0)
s = 29: (0, 17, 53, 36, 13, 10, 10, 5, 8, 13, 80, 0)
s = 30: (0, 16, 91, 35, 23, 13, 17, 8, 9, 17, 79, 0)
s = 31: (0, 23, 39, 47, 13, 9, 16, 5, 7, 7, 58, 0)
s = 32: (0, 14, 53, 26, 15, 13, 15, 10, 9, 13, 68, 0)
s = 33: (0, 16, 65, 36, 13, 8, 18, 7, 5, 16, 44, 0)
s = 34: (0, 13, 66, 37, 23, 7, 15, 7, 6, 13, 49, 0)
s = 35: (0, 16, 61, 32, 11, 10, 17, 4, 5, 12, 51, 0)
s = 36: (0, 18, 94, 30, 28, 6, 15, 6, 7, 13, 57, 0)
s = 37: (0, 14, 79, 38, 21, 5, 16, 7, 4, 9, 78, 0)
s = 38: (0, 10, 54, 38, 24, 7, 13, 8, 7, 8, 90, 0)
s = 39: (0, 10, 80, 48, 26, 11, 18, 10, 8, 18, 86, 0)
s = 40: (0, 17, 55, 55, 20, 7, 23, 9, 4, 14, 34, 0)
s = 41: (0, 27, 57, 38, 22, 7, 9, 8, 8, 8, 41, 0)
s = 42: (0, 20, 56, 31, 26, 10, 17, 9, 7, 16, 54, 0)
s = 43: (0, 11, 59, 23, 20, 8, 17, 7, 9, 13, 29, 0)
s = 44: (0, 16, 40, 43, 22, 11, 10, 5, 7, 20, 50, 0)
s = 45: (0, 17, 80, 45, 30, 6, 15, 5, 11, 10, 50, 0)
s = 46: (0, 15, 89, 65, 15, 13, 21, 6, 5, 11, 52, 0)
s = 47: (0, 14, 43, 33, 26, 7, 23, 10, 7, 18, 46, 0)
s = 48: (0, 13, 65, 38, 13, 7, 16, 9, 9, 15, 64, 0)
s = 49: (0, 10, 64, 36, 25, 8, 9, 8, 13, 15, 85, 0)
s = 50: (0, 13, 63, 35, 17, 11, 14, 5, 10, 7, 49, 0)
s = 51: (0, 24, 97, 33, 31, 8, 9, 5, 6, 20, 75, 0)
s = 52: (0, 24, 65, 52, 30, 6, 16, 4, 6, 15, 65, 0)
s = 53: (0, 16, 61, 51, 16, 8, 11, 6, 6, 14, 50, 0)
s = 54: (0, 10, 86, 26, 21, 6, 14, 4, 8, 18, 38, 0)
s = 55: (0, 12, 54, 23, 22, 8, 14, 7, 6, 10, 58, 0)
s = 56: (0, 19, 50, 61, 23, 6, 15, 5, 12, 16, 44, 0)
s = 57: (0, 16, 84, 41, 29, 7, 12, 8, 4, 13, 42, 0)
s = 58: (0, 19, 66, 59, 31, 7, 9, 7, 8, 9, 30, 0)
s = 59: (0, 18, 72, 27, 29, 11, 11, 4, 7, 13, 51, 0)
s = 60: (0, 17, 57, 29, 12, 7, 13, 6, 10, 11, 37, 0)
s = 61: (0, 18, 71, 22, 14, 7, 9, 6, 8, 16, 38, 0)
s = 62: (0, 10, 80, 42, 17, 7, 19, 6, 10, 12, 72, 0)
s = 63: (0, 12, 68, 39, 19, 7, 12, 8, 9, 14, 59, 0)
s = 64: (0, 15, 50, 43, 13, 10, 13, 7, 7, 14, 50, 0)
s = 65: (0, 14, 53, 32, 24, 10, 11, 4, 4, 11, 59, 0)
s = 66: (0, 24, 84, 49, 19, 5, 15, 9, 7, 13, 52, 0)
s = 67: (0, 22, 48, 34, 15, 11, 11, 5, 9, 15, 49, 0)
s = 68: (0, 21, 97, 28, 30, 6, 9, 6, 8, 11, 55, 0)
s = 69: (0, 25, 88, 41, 17, 7, 16, 6, 10, 11, 69, 0)
s = 70: (0, 10, 97, 35, 13, 11, 15, 5, 8, 13, 74, 0)
s = 71: (0, 17, 74, 34, 30, 9, 11, 5, 6, 11, 67, 0)
s = 72: (0, 20, 57, 34, 24, 8, 12, 5, 8, 8, 48, 0)
s = 73: (0, 25, 40, 40, 15, 8, 16, 5, 9, 12, 36, 0)
s = 74: (0, 13, 59, 31, 26, 7, 23, 7, 4, 14, 64, 0)
s = 75: (0, 16, 58, 21, 16, 8, 15, 5, 7, 8, 53, 0)
s = 76: (0, 18, 92, 49, 26, 9, 19, 7, 8, 11, 57, 0)
s = 77: (0, 11, 57, 44, 20, 6, 11, 5, 5, 13, 55, 0)
s = 78: (0, 25, 59, 32, 13, 6, 20, 10, 7, 18, 82, 0)
s = 79: (0, 16, 59, 26, 22, 9, 21, 5, 5, 13, 56, 0)
s = 80: (0, 12, 61, 41, 18, 5, 15, 10, 12, 11, 55, 0)
s = 81: (0, 15, 39, 33, 13, 11, 10, 9, 7, 13, 59, 0)
s = 82: (0, 10, 44, 21, 24, 6, 20, 5, 5, 12, 49, 0)
s = 83: (0, 18, 59, 25, 31, 7, 15, 8, 5, 14, 78, 0)
s = 84: (0, 15, 60, 29, 25, 6, 18, 7, 6, 12, 43, 0)
s = 85: (0, 18, 40, 39, 20, 8, 11, 5, 12, 13, 74, 0)
s = 86: (0, 20, 57, 35, 17, 6, 14, 8, 7, 13, 50, 0)
s = 87: (0, 15, 86, 33, 24, 6, 15, 5, 5, 12, 45, 0)
s = 88: (0, 16, 66, 31, 30, 7, 16, 7, 5, 10, 55, 0)
s = 89: (0, 22, 68, 30, 21, 10, 12, 7, 8, 17, 59, 0)
s = 90: (0, 15, 70, 32, 23, 9, 14, 6, 4, 11, 75, 0)
s = 91: (0, 15, 54, 27, 15, 12, 17, 4, 9, 19, 54, 0)
s = 92: (0, 12, 103, 31, 13, 12, 11, 7, 5, 14, 73, 0)
s = 93: (0, 15, 50, 21, 30, 12, 8, 5, 8, 10, 88, 0)
s = 94: (0, 10, 58, 53, 23, 12, 12, 11, 7, 16, 69, 0)
s = 95: (0, 12, 36, 30, 35, 9, 11, 5, 5, 13, 75, 0)
s = 96: (0, 15, 57, 33, 26, 12, 13, 4, 6, 10, 52, 0)
s = 97: (0, 17, 98, 34, 26, 6, 10, 5, 11, 9, 48, 0)
s = 98: (0, 13, 57, 57, 18, 12, 13, 6, 5, 12, 51, 0)
s = 99: (0, 13, 54, 44, 14, 7, 14, 5, 6, 17, 61, 0)
s = 100: (0, 14, 53, 23, 18, 8, 12, 9, 13, 13, 52, 0)
s = 101: (0, 23, 48, 42, 27, 12, 16, 7, 5, 9, 60, 0)
s = 102: (0, 26, 85, 58, 19, 12, 18, 7, 6, 13, 62, 0)
s = 103: (0, 11, 50, 32, 23, 8, 16, 4, 12, 15, 39, 0)
s = 104: (0, 18, 72, 30, 14, 9, 25, 5, 5, 13, 43, 0)
s = 105: (0, 18, 61, 52, 15, 8, 20, 4, 8, 11, 47, 0)
s = 106: (0, 13, 74, 20, 16, 9, 15, 4, 6, 18, 73, 0)
s = 107: (0, 14, 37, 27, 30, 11, 11, 5, 5, 11, 50, 0)
s = 108: (0, 13, 54, 43, 25, 12, 14, 8, 10, 16, 60, 0)
s = 109: (0, 21, 65, 31, 16, 8, 14, 6, 6, 14, 53, 0)
s = 110: (0, 12, 78, 28, 21, 10, 13, 4, 11, 9, 38, 0)
s = 111: (0, 15, 47, 42, 21, 9, 16, 9, 6, 14, 49, 0)
s = 112: (0, 17, 52, 36, 18, 10, 13, 8, 6, 16, 38, 0)
s = 113: (0, 11, 45, 47, 28, 8, 19, 6, 9, 11, 45, 0)
s = 114: (0, 17, 54, 49, 26, 10, 9, 6, 5, 13, 79, 0)
s = 115: (0, 15, 38, 28, 21, 5, 10, 4, 8, 14, 57, 0)
s = 116: (0, 14, 37, 45, 22, 6, 21, 5, 5, 14, 59, 0)
s = 117: (0, 22, 39, 58, 23, 8, 18, 5, 8, 19, 40, 0)
s = 118: (0, 15, 47, 32, 27, 8, 14, 8, 5, 10, 67, 0)
s = 119: (0, 17, 59, 21, 24, 9, 16, 4, 11, 14, 54, 0)
s = 120: (0, 19, 55, 28, 16, 13, 16, 7, 7, 13, 48, 0)
s = 121: (0, 17, 41, 39, 25, 9, 10, 5, 6, 8, 58, 0)
s = 122: (0, 17, 56, 36, 17, 6, 14, 7, 8, 11, 52, 0)
s = 123: (0, 13, 41, 31, 17, 10, 13, 6, 6, 11, 66, 0)
s = 124: (0, 9, 68, 33, 17, 6, 11, 6, 7, 13, 55, 0)
s = 125: (0, 15, 74, 31, 18, 8, 18, 4, 6, 14, 58, 0)
s = 126: (0, 13, 48, 22, 24, 6, 14, 7, 7, 10, 51, 0)
s = 127: (0, 30, 71, 58, 18, 5, 19, 7, 8, 21, 64, 0)
s = 128: (0, 15, 88, 42, 23, 16, 18, 7, 5, 9, 37, 0)
s = 129: (0, 11, 70, 29, 18, 7, 18, 5, 7, 23, 60, 0)
s = 130: (0, 13, 55, 28, 12, 8, 14, 6, 5, 15, 53, 0)
s = 131: (0, 17, 67, 22, 21, 9, 10, 7, 8, 8, 40, 0)
s = 132: (0, 27, 44, 34, 21, 6, 13, 6, 6, 15, 32, 0)
s = 133: (0, 20, 40, 35, 29, 11, 15, 9, 8, 10, 78, 0)
s = 134: (0, 11, 69, 32, 26, 7, 8, 4, 7, 15, 58, 0)
s = 135: (0, 16, 49, 28, 19, 10, 10, 7, 4, 17, 89, 0)
s = 136: (0, 15, 41, 49, 18, 11, 11, 8, 6, 12, 67, 0)
s = 137: (0, 19, 45, 34, 14, 9, 19, 7, 8, 13, 44, 0)
s = 138: (0, 24, 36, 36, 20, 5, 18, 4, 5, 14, 42, 0)
s = 139: (0, 17, 80, 37, 23, 6, 16, 6, 7, 10, 67, 0)
s = 140: (0, 10, 51, 24, 23, 5, 9, 5, 5, 12, 44, 0)
s = 141: (0, 15, 60, 29, 28, 6, 14, 8, 10, 15, 75, 0)
s = 142: (0, 15, 68, 37, 14, 5, 11, 5, 8, 13, 48, 0)
s = 143: (0, 9, 74, 33, 17, 10, 17, 10, 5, 7, 47, 0)
s = 144: (0, 15, 87, 32, 14, 7, 12, 6, 10, 13, 37, 0)
s = 145: (0, 18, 52, 23, 16, 6, 22, 9, 6, 14, 71, 0)
s = 146: (0, 16, 48, 22, 22, 5, 11, 9, 5, 11, 53, 0)
s = 147: (0, 13, 60, 38, 27, 9, 19, 4, 11, 15, 62, 0)
s = 148: (0, 17, 65, 30, 20, 8, 9, 7, 11, 14, 43, 0)
s = 149: (0, 11, 79, 27, 35, 10, 15, 4, 5, 9, 37, 0)
s = 150: (0, 18, 80, 24, 20, 7, 15, 8, 5, 10, 65, 0)
s = 151: (0, 22, 90, 50, 17, 9, 20, 7, 9, 9, 47, 0)
s = 152: (0, 14, 86, 54, 19, 7, 9, 9, 8, 15, 77, 0)
s = 153: (0, 20, 49, 24, 25, 10, 10, 6, 7, 11, 50, 0)
s = 154: (0, 10, 80, 20, 22, 9, 10, 6, 11, 16, 54, 0)
s = 155: (0, 24, 43, 47, 18, 14, 19, 5, 7, 13, 65, 0)
s = 156: (0, 9, 45, 43, 14, 7, 8, 8, 10, 17, 48, 0)
s = 157: (0, 9, 66, 24, 25, 9, 22, 11, 10, 13, 55, 0)
s = 158: (0, 10, 74, 26, 21, 7, 21, 5, 7, 16, 48, 0)
s = 159: (0, 11, 79, 60, 13, 7, 9, 8, 9, 12, 43, 0)
s = 160: (0, 13, 41, 34, 19, 11, 20, 7, 9, 17, 46, 0)
s = 161: (0, 21, 77, 51, 16, 9, 14, 4, 7, 10, 43, 0)
s = 162: (0, 21, 53, 56, 22, 7, 17, 8, 7, 11, 61, 0)
s = 163: (0, 11, 81, 25, 16, 6, 25, 7, 7, 14, 49, 0)
s = 164: (0, 19, 54, 34, 16, 10, 11, 7, 8, 15, 80, 0)
s = 165: (0, 27, 73, 59, 16, 11, 9, 6, 8, 12, 53, 0)
s = 166: (0, 14, 79, 40, 21, 9, 16, 4, 11, 8, 99, 0)
s = 167: (0, 15, 68, 25, 12, 14, 14, 6, 11, 9, 67, 0)
s = 168: (0, 15, 79, 37, 29, 10, 13, 8, 5, 8, 58, 0)
s = 169: (0, 15, 61, 29, 23, 7, 13, 8, 8, 21, 46, 0)
s = 170: (0, 22, 57, 47, 16, 9, 10, 4, 8, 13, 28, 0)
s = 171: (0, 9, 89, 32, 15, 6, 10, 7, 13, 9, 61, 0)
s = 172: (0, 12, 70, 34, 29, 9, 19, 4, 7, 22, 46, 0)
s = 173: (0, 16, 78, 40, 27, 10, 9, 7, 9, 7, 46, 0)
s = 174: (0, 12, 44, 31, 15, 10, 23, 8, 9, 11, 41, 0)
s = 175: (0, 17, 113, 42, 14, 6, 14, 4, 11, 14, 70, 0)
s = 176: (0, 20, 79, 33, 20, 7, 11, 7, 6, 11, 56, 0)
s = 177: (0, 20, 85, 40, 16, 5, 18, 6, 10, 13, 45, 0)
s = 178: (0, 12, 72, 53, 13, 8, 11, 8, 6, 13, 63, 0)
s = 179: (0, 25, 70, 43, 17, 7, 13, 4, 6, 14, 74, 0)
s = 180: (0, 17, 34, 35, 14, 8, 14, 8, 5, 10, 50, 0)
s = 181: (0, 17, 55, 30, 20, 9, 25, 8, 5, 12, 72, 0)
s = 182: (0, 19, 90, 37, 19, 9, 15, 8, 6, 15, 48, 0)
s = 183: (0, 12, 65, 42, 21, 7, 16, 6, 8, 9, 36, 0)
s = 184: (0, 11, 52, 41, 16, 10, 11, 6, 7, 12, 47, 0)
s = 185: (0, 13, 64, 24, 18, 5, 12, 7, 6, 11, 52, 0)
s = 186: (0, 21, 75, 32, 20, 7, 13, 5, 8, 12, 40, 0)
s = 187: (0, 14, 74, 46, 27, 8, 9, 7, 7, 12, 48, 0)
s = 188: (0, 14, 63, 25, 33, 8, 19, 5, 6, 13, 64, 0)
s = 189: (0, 10, 74, 19, 24, 5, 10, 8, 8, 13, 57, 0)
s = 190: (0, 14, 45, 54, 18, 8, 10, 8, 7, 16, 66, 0)
s = 191: (0, 19, 47, 22, 23, 9, 16, 6, 6, 12, 39, 0)
s = 192: (0, 14, 55, 23, 25, 10, 25, 4, 5, 13, 48, 0)
s = 193: (0, 12, 69, 31, 17, 10, 12, 5, 9, 7, 79, 0)
s = 194: (0, 19, 65, 51, 22, 6, 11, 9, 12, 11, 87, 0)
s = 195: (0, 23, 37, 28, 15, 12, 9, 5, 7, 9, 52, 0)
s = 196: (0, 16, 58, 53, 24, 6, 14, 6, 5, 10, 76, 0)
s = 197: (0, 24, 61, 30, 12, 6, 11, 7, 9, 18, 53, 0)
s = 198: (0, 14, 91, 31, 13, 9, 19, 10, 4, 14, 70, 0)
s = 199: (0, 14, 44, 43, 23, 8, 21, 6, 5, 8, 44, 0)
s = 200: (0, 25, 49, 45, 22, 9, 15, 6, 7, 16, 55, 0)
------------------------------------------------------------------------
RESOURCE k = 3
s = 1: (0, 25, 65, 29, 52, 8, 12, 15, 6, 18, 32, 0)
s = 2: (0, 18, 92, 26, 63, 5, 13, 15, 6, 17, 52, 0)
s = 3: (0, 18, 54, 25, 36, 3, 14, 25, 6, 13, 47, 0)
s = 4: (0, 28, 82, 38, 30, 5, 7, 13, 7, 13, 31, 0)
s = 5: (0, 15, 44, 24, 49, 7, 11, 22, 7, 21, 57, 0)
s = 6: (0, 24, 43, 29, 51, 6, 16, 16, 9, 15, 83, 0)
s = 7: (0, 13, 52, 32, 25, 6, 13, 18, 10, 16, 60, 0)
s = 8: (0, 18, 48, 39, 47, 5, 9, 15, 5, 16, 37, 0)
s = 9: (0, 24, 42, 23, 53, 4, 7, 21, 5, 9, 37, 0)
s = 10: (0, 14, 51, 39, 59, 7, 13, 14, 9, 14, 51, 0)
s = 11: (0, 12, 61, 26, 39, 5, 10, 11, 6, 10, 63, 0)
s = 12: (0, 15, 66, 26, 59, 6, 11, 24, 5, 14, 44, 0)
s = 13: (0, 20, 41, 46, 24, 5, 13, 16, 5, 11, 65, 0)
s = 14: (0, 17, 51, 49, 39, 6, 7, 25, 8, 22, 64, 0)
s = 15: (0, 21, 82, 46, 52, 5, 10, 20, 13, 14, 54, 0)
s = 16: (0, 22, 105, 49, 32, 4, 18, 15, 6, 17, 37, 0)
s = 17: (0, 17, 110, 37, 32, 5, 9, 31, 8, 18, 64, 0)
s = 18: (0, 18, 82, 27, 67, 6, 13, 16, 5, 15, 37, 0)
s = 19: (0, 23, 67, 36, 58, 6, 18, 20, 8, 12, 26, 0)
s = 20: (0, 16, 65, 39, 45, 7, 13, 27, 6, 11, 30, 0)
s = 21: (0, 13, 95, 49, 56, 8, 14, 26, 6, 16, 37, 0)
s = 22: (0, 16, 73, 38, 55, 7, 10, 31, 5, 21, 47, 0)
s = 23: (0, 18, 78, 32, 30, 7, 14, 23, 12, 19, 76, 0)
s = 24: (0, 17, 57, 33, 27, 7, 19, 12, 6, 12, 71, 0)
s = 25: (0, 23, 50, 26, 38, 5, 14, 12, 5, 16, 37, 0)
s = 26: (0, 19, 42, 48, 38, 5, 8, 13, 5, 15, 52, 0)
s = 27: (0, 16, 64, 32, 52, 4, 15, 21, 8, 16, 60, 0)
s = 28: (0, 17, 52, 25, 42, 6, 8, 25, 7, 16, 38, 0)
s = 29: (0, 21, 53, 36, 30, 6, 9, 17, 8, 17, 71, 0)
s = 30: (0, 20, 91, 35, 51, 8, 15, 27, 9, 23, 70, 0)
s = 31: (0, 29, 39, 47, 28, 6, 13, 14, 7, 9, 52, 0)
s = 32: (0, 17, 53, 26, 34, 8, 13, 33, 9, 17, 61, 0)
s = 33: (0, 20, 65, 36, 28, 5, 15, 21, 5, 22, 39, 0)
s = 34: (0, 17, 66, 37, 50, 4, 13, 23, 6, 17, 44, 0)
s = 35: (0, 19, 61, 32, 24, 6, 15, 12, 5, 15, 46, 0)
s = 36: (0, 23, 94, 30, 61, 4, 13, 20, 7, 17, 51, 0)
s = 37: (0, 17, 79, 38, 47, 3, 13, 23, 4, 11, 70, 0)
s = 38: (0, 12, 54, 38, 53, 4, 11, 24, 7, 10, 80, 0)
s = 39: (0, 13, 80, 48, 57, 7, 16, 31, 8, 24, 77, 0)
s = 40: (0, 21, 55, 55, 44, 5, 20, 28, 4, 19, 30, 0)
s = 41: (0, 33, 57, 38, 49, 4, 8, 24, 8, 11, 36, 0)
s = 42: (0, 25, 56, 31, 58, 7, 15, 27, 7, 22, 48, 0)
s = 43: (0, 14, 59, 23, 45, 5, 14, 21, 9, 17, 26, 0)
s = 44: (0, 19, 40, 43, 48, 7, 9, 14, 7, 27, 45, 0)
s = 45: (0, 21, 80, 45, 68, 4, 13, 15, 11, 13, 45, 0)
s = 46: (0, 19, 89, 65, 33, 8, 18, 19, 5, 14, 47, 0)
s = 47: (0, 18, 43, 33, 57, 5, 19, 33, 7, 24, 41, 0)
s = 48: (0, 16, 65, 38, 29, 4, 14, 30, 9, 20, 57, 0)
s = 49: (0, 13, 64, 36, 56, 5, 8, 27, 13, 19, 75, 0)
s = 50: (0, 16, 63, 35, 38, 7, 12, 14, 10, 10, 44, 0)
s = 51: (0, 30, 97, 33, 69, 5, 8, 16, 6, 27, 67, 0)
s = 52: (0, 30, 65, 52, 67, 4, 14, 13, 6, 20, 58, 0)
s = 53: (0, 19, 61, 51, 36, 5, 9, 20, 6, 18, 44, 0)
s = 54: (0, 12, 86, 26, 46, 4, 12, 13, 8, 23, 34, 0)
s = 55: (0, 15, 54, 23, 49, 5, 12, 22, 6, 13, 51, 0)
s = 56: (0, 24, 50, 61, 50, 4, 13, 15, 12, 21, 39, 0)
s = 57: (0, 20, 84, 41, 65, 5, 10, 26, 4, 17, 37, 0)
s = 58: (0, 24, 66, 59, 69, 5, 8, 23, 8, 12, 27, 0)
s = 59: (0, 23, 72, 27, 64, 7, 9, 12, 7, 17, 45, 0)
s = 60: (0, 22, 57, 29, 27, 5, 11, 18, 10, 14, 33, 0)
s = 61: (0, 23, 71, 22, 31, 4, 8, 18, 8, 22, 33, 0)
s = 62: (0, 12, 80, 42, 37, 5, 17, 18, 10, 16, 64, 0)
s = 63: (0, 14, 68, 39, 41, 5, 11, 26, 9, 18, 53, 0)
s = 64: (0, 19, 50, 43, 29, 6, 11, 23, 7, 19, 44, 0)
s = 65: (0, 17, 53, 32, 54, 6, 9, 11, 4, 15, 53, 0)
s = 66: (0, 29, 84, 49, 43, 3, 13, 29, 7, 17, 46, 0)
s = 67: (0, 27, 48, 34, 34, 7, 10, 16, 9, 20, 44, 0)
s = 68: (0, 26, 97, 28, 66, 4, 8, 18, 8, 15, 49, 0)
s = 69: (0, 31, 88, 41, 37, 5, 14, 19, 10, 15, 61, 0)
s = 70: (0, 12, 97, 35, 29, 7, 13, 15, 8, 17, 65, 0)
s = 71: (0, 21, 74, 34, 68, 6, 9, 15, 6, 14, 60, 0)
s = 72: (0, 25, 57, 34, 54, 5, 11, 15, 8, 11, 43, 0)
s = 73: (0, 31, 40, 40, 33, 5, 14, 17, 9, 16, 32, 0)
s = 74: (0, 16, 59, 31, 57, 5, 20, 22, 4, 18, 57, 0)
s = 75: (0, 20, 58, 21, 36, 5, 13, 16, 7, 10, 48, 0)
s = 76: (0, 23, 92, 49, 58, 6, 16, 21, 8, 15, 51, 0)
s = 77: (0, 13, 57, 44, 44, 4, 9, 17, 5, 17, 49, 0)
s = 78: (0, 32, 59, 32, 28, 4, 18, 31, 7, 23, 73, 0)
s = 79: (0, 20, 59, 26, 50, 6, 18, 15, 5, 18, 50, 0)
s = 80: (0, 15, 61, 41, 39, 4, 13, 31, 12, 15, 49, 0)
s = 81: (0, 18, 39, 33, 29, 7, 8, 29, 7, 18, 52, 0)
s = 82: (0, 12, 44, 21, 54, 4, 18, 16, 5, 15, 44, 0)
s = 83: (0, 22, 59, 25, 68, 4, 13, 26, 5, 19, 69, 0)
s = 84: (0, 18, 60, 29, 55, 4, 15, 21, 6, 15, 38, 0)
s = 85: (0, 22, 40, 39, 44, 5, 10, 15, 12, 17, 66, 0)
s = 86: (0, 25, 57, 35, 37, 4, 12, 25, 7, 17, 44, 0)
s = 87: (0, 18, 86, 33, 54, 4, 13, 17, 5, 16, 40, 0)
s = 88: (0, 20, 66, 31, 66, 5, 14, 23, 5, 14, 49, 0)
s = 89: (0, 28, 68, 30, 46, 6, 10, 21, 8, 23, 52, 0)
s = 90: (0, 19, 70, 32, 52, 6, 12, 19, 4, 15, 67, 0)
s = 91: (0, 19, 54, 27, 34, 8, 14, 11, 9, 25, 48, 0)
s = 92: (0, 15, 103, 31, 29, 8, 10, 22, 5, 19, 65, 0)
s = 93: (0, 18, 50, 21, 68, 8, 7, 16, 8, 13, 78, 0)
s = 94: (0, 13, 58, 53, 50, 8, 10, 35, 7, 21, 61, 0)
s = 95: (0, 15, 36, 30, 79, 6, 9, 15, 5, 17, 67, 0)
s = 96: (0, 19, 57, 33, 57, 8, 11, 12, 6, 13, 46, 0)
s = 97: (0, 21, 98, 34, 59, 4, 8, 14, 11, 12, 42, 0)
s = 98: (0, 17, 57, 57, 40, 8, 11, 20, 5, 16, 45, 0)
s = 99: (0, 16, 54, 44, 30, 5, 12, 15, 6, 23, 54, 0)
s = 100: (0, 18, 53, 23, 39, 5, 10, 29, 13, 18, 46, 0)
s = 101: (0, 28, 48, 42, 61, 8, 14, 21, 5, 12, 53, 0)
s = 102: (0, 32, 85, 58, 42, 8, 16, 22, 6, 17, 55, 0)
s = 103: (0, 13, 50, 32, 52, 5, 14, 12, 12, 20, 35, 0)
s = 104: (0, 22, 72, 30, 31, 6, 22, 16, 5, 18, 39, 0)
s = 105: (0, 22, 61, 52, 32, 5, 17, 11, 8, 15, 42, 0)
s = 106: (0, 16, 74, 20, 35, 6, 13, 12, 6, 24, 65, 0)
s = 107: (0, 17, 37, 27, 66, 7, 9, 14, 5, 14, 45, 0)
s = 108: (0, 16, 54, 43, 55, 8, 12, 25, 10, 22, 53, 0)
s = 109: (0, 26, 65, 31, 36, 5, 12, 20, 6, 18, 47, 0)
s = 110: (0, 15, 78, 28, 46, 6, 11, 12, 11, 12, 33, 0)
s = 111: (0, 18, 47, 42, 47, 6, 13, 29, 6, 18, 43, 0)
s = 112: (0, 21, 52, 36, 39, 7, 11, 24, 6, 21, 34, 0)
s = 113: (0, 14, 45, 47, 63, 5, 16, 20, 9, 14, 40, 0)
s = 114: (0, 21, 54, 49, 58, 6, 8, 19, 5, 17, 70, 0)
s = 115: (0, 18, 38, 28, 47, 4, 9, 14, 8, 19, 51, 0)
s = 116: (0, 18, 37, 45, 49, 4, 18, 16, 5, 18, 53, 0)
s = 117: (0, 28, 39, 58, 52, 5, 15, 16, 8, 25, 36, 0)
s = 118: (0, 18, 47, 32, 60, 5, 12, 24, 5, 13, 60, 0)
s = 119: (0, 22, 59, 21, 53, 6, 14, 13, 11, 19, 48, 0)
s = 120: (0, 24, 55, 28, 35, 8, 14, 21, 7, 17, 43, 0)
s = 121: (0, 21, 41, 39, 55, 6, 8, 14, 6, 11, 51, 0)
s = 122: (0, 21, 56, 36, 38, 4, 12, 24, 8, 14, 47, 0)
s = 123: (0, 16, 41, 31, 37, 6, 11, 19, 6, 14, 59, 0)
s = 124: (0, 12, 68, 33, 37, 4, 9, 19, 7, 17, 49, 0)
s = 125: (0, 18, 74, 31, 40, 5, 15, 12, 6, 18, 51, 0)
s = 126: (0, 16, 48, 22, 54, 4, 12, 22, 7, 13, 45, 0)
s = 127: (0, 38, 71, 58, 40, 4, 16, 24, 8, 28, 57, 0)
s = 128: (0, 19, 88, 42, 51, 10, 16, 22, 5, 12, 33, 0)
s = 129: (0, 14, 70, 29, 40, 4, 16, 17, 7, 31, 53, 0)
s = 130: (0, 16, 55, 28, 27, 5, 12, 20, 5, 19, 47, 0)
s = 131: (0, 21, 67, 22, 47, 6, 9, 24, 8, 10, 35, 0)
s = 132: (0, 34, 44, 34, 47, 4, 11, 18, 6, 20, 29, 0)
s = 133: (0, 24, 40, 35, 65, 7, 13, 29, 8, 13, 69, 0)
s = 134: (0, 13, 69, 32, 57, 5, 7, 13, 7, 19, 52, 0)
s = 135: (0, 20, 49, 28, 42, 6, 9, 22, 4, 22, 80, 0)
s = 136: (0, 18, 41, 49, 39, 7, 10, 25, 6, 16, 60, 0)
s = 137: (0, 24, 45, 34, 32, 6, 16, 22, 8, 18, 39, 0)
s = 138: (0, 30, 36, 36, 45, 3, 15, 13, 5, 19, 37, 0)
s = 139: (0, 21, 80, 37, 52, 4, 14, 18, 7, 14, 60, 0)
s = 140: (0, 13, 51, 24, 51, 4, 8, 17, 5, 16, 39, 0)
s = 141: (0, 18, 60, 29, 62, 4, 12, 24, 10, 20, 67, 0)
s = 142: (0, 19, 68, 37, 30, 4, 10, 14, 8, 17, 43, 0)
s = 143: (0, 12, 74, 33, 38, 6, 14, 33, 5, 10, 42, 0)
s = 144: (0, 19, 87, 32, 31, 4, 10, 18, 10, 17, 33, 0)
s = 145: (0, 22, 52, 23, 36, 4, 19, 28, 6, 18, 64, 0)
s = 146: (0, 20, 48, 22, 48, 4, 10, 30, 5, 14, 47, 0)
s = 147: (0, 16, 60, 38, 60, 6, 17, 12, 11, 20, 55, 0)
s = 148: (0, 21, 65, 30, 43, 5, 8, 24, 11, 19, 38, 0)
s = 149: (0, 14, 79, 27, 77, 7, 13, 12, 5, 12, 33, 0)
s = 150: (0, 22, 80, 24, 45, 4, 13, 27, 5, 13, 58, 0)
s = 151: (0, 27, 90, 50, 38, 6, 17, 21, 9, 12, 42, 0)
s = 152: (0, 18, 86, 54, 43, 5, 8, 29, 8, 20, 68, 0)
s = 153: (0, 25, 49, 24, 55, 7, 8, 18, 7, 14, 45, 0)
s = 154: (0, 12, 80, 20, 48, 6, 9, 19, 11, 21, 48, 0)
s = 155: (0, 30, 43, 47, 39, 9, 17, 16, 7, 17, 58, 0)
s = 156: (0, 11, 45, 43, 30, 5, 7, 25, 10, 23, 43, 0)
s = 157: (0, 11, 66, 24, 55, 6, 19, 34, 10, 17, 49, 0)
s = 158: (0, 13, 74, 26, 46, 5, 18, 14, 7, 22, 42, 0)
s = 159: (0, 14, 79, 60, 29, 4, 7, 26, 9, 16, 38, 0)
s = 160: (0, 16, 41, 34, 43, 7, 17, 23, 9, 22, 41, 0)
s = 161: (0, 26, 77, 51, 35, 6, 12, 14, 7, 13, 39, 0)
s = 162: (0, 26, 53, 56, 49, 5, 15, 24, 7, 14, 54, 0)
s = 163: (0, 14, 81, 25, 35, 4, 21, 23, 7, 18, 43, 0)
s = 164: (0, 23, 54, 34, 34, 6, 9, 22, 8, 19, 71, 0)
s = 165: (0, 33, 73, 59, 36, 7, 8, 19, 8, 15, 47, 0)
s = 166: (0, 17, 79, 40, 47, 6, 14, 14, 11, 11, 88, 0)
s = 167: (0, 19, 68, 25, 27, 9, 12, 18, 11, 12, 59, 0)
s = 168: (0, 19, 79, 37, 65, 6, 11, 25, 5, 10, 52, 0)
s = 169: (0, 19, 61, 29, 51, 5, 11, 25, 8, 27, 41, 0)
s = 170: (0, 27, 57, 47, 36, 6, 9, 12, 8, 17, 25, 0)
s = 171: (0, 11, 89, 32, 32, 4, 9, 22, 13, 12, 54, 0)
s = 172: (0, 15, 70, 34, 65, 6, 17, 13, 7, 29, 41, 0)
s = 173: (0, 20, 78, 40, 59, 6, 8, 23, 9, 10, 41, 0)
s = 174: (0, 15, 44, 31, 34, 7, 20, 24, 9, 15, 37, 0)
s = 175: (0, 21, 113, 42, 30, 4, 12, 13, 11, 19, 62, 0)
s = 176: (0, 25, 79, 33, 44, 5, 10, 22, 6, 15, 50, 0)
s = 177: (0, 25, 85, 40, 35, 3, 15, 20, 10, 17, 40, 0)
s = 178: (0, 15, 72, 53, 28, 5, 10, 26, 6, 18, 56, 0)
s = 179: (0, 31, 70, 43, 38, 4, 12, 11, 6, 18, 66, 0)
s = 180: (0, 22, 34, 35, 30, 5, 12, 27, 5, 13, 45, 0)
s = 181: (0, 21, 55, 30, 45, 6, 21, 25, 5, 15, 64, 0)
s = 182: (0, 24, 90, 37, 42, 6, 13, 26, 6, 20, 43, 0)
s = 183: (0, 15, 65, 42, 46, 5, 14, 19, 8, 12, 32, 0)
s = 184: (0, 14, 52, 41, 35, 6, 9, 18, 7, 16, 42, 0)
s = 185: (0, 16, 64, 24, 40, 4, 10, 23, 6, 15, 46, 0)
s = 186: (0, 26, 75, 32, 45, 4, 11, 16, 8, 16, 36, 0)
s = 187: (0, 17, 74, 46, 60, 5, 7, 21, 7, 16, 43, 0)
s = 188: (0, 18, 63, 25, 73, 5, 16, 17, 6, 17, 57, 0)
s = 189: (0, 12, 74, 19, 54, 3, 8, 26, 8, 18, 50, 0)
s = 190: (0, 17, 45, 54, 41, 5, 8, 25, 7, 21, 59, 0)
s = 191: (0, 24, 47, 22, 50, 6, 13, 20, 6, 16, 35, 0)
s = 192: (0, 18, 55, 23, 56, 6, 21, 13, 5, 17, 43, 0)
s = 193: (0, 15, 69, 31, 38, 6, 10, 15, 9, 10, 70, 0)
s = 194: (0, 24, 65, 51, 49, 4, 10, 28, 12, 15, 78, 0)
s = 195: (0, 29, 37, 28, 32, 8, 8, 16, 7, 12, 47, 0)
s = 196: (0, 20, 58, 53, 54, 4, 12, 20, 5, 13, 68, 0)
s = 197: (0, 30, 61, 30, 27, 4, 9, 23, 9, 24, 47, 0)
s = 198: (0, 17, 91, 31, 28, 6, 17, 32, 4, 19, 62, 0)
s = 199: (0, 17, 44, 43, 52, 5, 18, 18, 5, 11, 39, 0)
s = 200: (0, 31, 49, 45, 49, 6, 13, 18, 7, 21, 49, 0)
************************************************************************
ES/LS-VALUES:
jobnr.   ES(i)    LS(i)
------------------------------------------------------------------------
  0        0        0
  1        0       58
  2        0       54
  3        0       70
  4        3       62
  5       11       72
  6       13       74
  7        3       67
  8        7       80
  9       16       78
 10       16       71
 11       27       82
************************************************************************
BIG-M-VALUES:
M1 = 87, M2 = 371
************************************************************************
